experiments/sat_smt/run/sat-r+/results/lydia.res
solved=true
solvingTime=3.144609928131103515625
nActions=7