experiments/sat_smt/run/sat-r+/results/lydia.out
Timesteps: 1
s UNSATISFIABLE
real 0.14
user 0.01
sys 0.00
Timesteps: 2
s UNSATISFIABLE
real 0.17
user 0.04
sys 0.00
Timesteps: 3
s UNSATISFIABLE
real 0.15
user 0.08
sys 0.00
Timesteps: 4
s UNSATISFIABLE
real 0.37
user 0.21
sys 0.01
Timesteps: 5
s UNSATISFIABLE
real 0.70
user 0.44
sys 0.01
Timesteps: 6
s UNSATISFIABLE
real 0.61
user 0.48
sys 0.01
Timesteps: 7
s SATISFIABLE
real 0.84
user 0.66
sys 0.03
